c " random instance " 
p edges 200 4083
e 1 2
e 1 3
e 1 14
e 1 20
e 1 24
e 1 27
e 1 33
e 1 36
e 1 37
e 1 42
e 1 46
e 1 52
e 1 55
e 1 63
e 1 64
e 1 65
e 1 67
e 1 69
e 1 70
e 1 80
e 1 85
e 1 91
e 1 105
e 1 113
e 1 129
e 1 130
e 1 136
e 1 142
e 1 148
e 1 151
e 1 159
e 1 163
e 1 166
e 1 172
e 1 174
e 1 178
e 1 186
e 1 193
e 1 195
e 1 199
e 2 5
e 2 7
e 2 9
e 2 10
e 2 19
e 2 28
e 2 30
e 2 37
e 2 38
e 2 39
e 2 41
e 2 48
e 2 49
e 2 51
e 2 52
e 2 57
e 2 62
e 2 64
e 2 71
e 2 72
e 2 78
e 2 81
e 2 93
e 2 94
e 2 103
e 2 105
e 2 118
e 2 120
e 2 128
e 2 131
e 2 133
e 2 134
e 2 135
e 2 136
e 2 138
e 2 139
e 2 141
e 2 148
e 2 151
e 2 153
e 2 156
e 2 160
e 2 161
e 2 162
e 2 166
e 2 167
e 2 170
e 2 171
e 2 172
e 2 186
e 2 187
e 2 193
e 3 4
e 3 7
e 3 13
e 3 15
e 3 18
e 3 22
e 3 27
e 3 28
e 3 41
e 3 44
e 3 45
e 3 49
e 3 53
e 3 61
e 3 65
e 3 84
e 3 92
e 3 93
e 3 95
e 3 102
e 3 106
e 3 135
e 3 138
e 3 141
e 3 143
e 3 144
e 3 145
e 3 147
e 3 164
e 3 166
e 3 167
e 3 169
e 3 170
e 3 183
e 3 187
e 3 191
e 3 192
e 3 195
e 3 200
e 4 9
e 4 23
e 4 25
e 4 29
e 4 37
e 4 38
e 4 42
e 4 47
e 4 51
e 4 58
e 4 60
e 4 74
e 4 79
e 4 89
e 4 97
e 4 99
e 4 107
e 4 108
e 4 112
e 4 114
e 4 125
e 4 126
e 4 128
e 4 133
e 4 138
e 4 143
e 4 144
e 4 149
e 4 155
e 4 157
e 4 159
e 4 171
e 4 174
e 4 178
e 4 183
e 4 186
e 4 198
e 5 15
e 5 20
e 5 28
e 5 38
e 5 47
e 5 48
e 5 51
e 5 59
e 5 62
e 5 63
e 5 64
e 5 68
e 5 71
e 5 74
e 5 77
e 5 85
e 5 88
e 5 91
e 5 96
e 5 102
e 5 113
e 5 121
e 5 126
e 5 137
e 5 146
e 5 155
e 5 160
e 5 162
e 5 168
e 5 169
e 5 171
e 5 175
e 5 176
e 5 177
e 5 179
e 5 180
e 5 181
e 5 188
e 6 13
e 6 26
e 6 29
e 6 40
e 6 42
e 6 44
e 6 52
e 6 56
e 6 59
e 6 63
e 6 69
e 6 72
e 6 73
e 6 87
e 6 89
e 6 93
e 6 97
e 6 101
e 6 119
e 6 120
e 6 123
e 6 127
e 6 134
e 6 141
e 6 145
e 6 156
e 6 162
e 6 164
e 6 165
e 6 167
e 6 168
e 6 173
e 6 178
e 6 181
e 6 184
e 6 186
e 6 188
e 6 189
e 6 191
e 6 200
e 7 9
e 7 11
e 7 20
e 7 27
e 7 43
e 7 50
e 7 53
e 7 57
e 7 65
e 7 66
e 7 70
e 7 75
e 7 82
e 7 84
e 7 91
e 7 95
e 7 97
e 7 99
e 7 102
e 7 104
e 7 105
e 7 107
e 7 110
e 7 111
e 7 115
e 7 120
e 7 122
e 7 125
e 7 133
e 7 136
e 7 142
e 7 147
e 7 149
e 7 154
e 7 156
e 7 157
e 7 160
e 7 168
e 7 170
e 7 175
e 7 178
e 7 185
e 7 186
e 7 192
e 7 193
e 7 197
e 7 199
e 8 14
e 8 17
e 8 30
e 8 48
e 8 50
e 8 57
e 8 58
e 8 60
e 8 72
e 8 76
e 8 82
e 8 89
e 8 95
e 8 97
e 8 101
e 8 110
e 8 115
e 8 116
e 8 119
e 8 125
e 8 136
e 8 142
e 8 147
e 8 151
e 8 156
e 8 159
e 8 168
e 8 170
e 8 171
e 8 178
e 8 181
e 8 183
e 8 186
e 8 188
e 8 193
e 8 194
e 8 197
e 9 15
e 9 16
e 9 33
e 9 34
e 9 38
e 9 39
e 9 40
e 9 43
e 9 47
e 9 57
e 9 60
e 9 64
e 9 67
e 9 78
e 9 84
e 9 91
e 9 104
e 9 108
e 9 120
e 9 121
e 9 122
e 9 123
e 9 125
e 9 132
e 9 145
e 9 151
e 9 173
e 9 177
e 9 180
e 9 181
e 9 184
e 9 185
e 9 187
e 9 194
e 9 200
e 10 12
e 10 21
e 10 31
e 10 34
e 10 39
e 10 45
e 10 46
e 10 47
e 10 50
e 10 52
e 10 59
e 10 63
e 10 64
e 10 68
e 10 70
e 10 78
e 10 83
e 10 85
e 10 86
e 10 91
e 10 97
e 10 102
e 10 111
e 10 117
e 10 121
e 10 125
e 10 128
e 10 130
e 10 139
e 10 144
e 10 145
e 10 149
e 10 159
e 10 160
e 10 161
e 10 162
e 10 167
e 10 169
e 10 173
e 10 176
e 10 185
e 10 194
e 10 199
e 11 14
e 11 15
e 11 18
e 11 22
e 11 27
e 11 33
e 11 34
e 11 43
e 11 46
e 11 49
e 11 52
e 11 53
e 11 62
e 11 65
e 11 74
e 11 77
e 11 86
e 11 96
e 11 97
e 11 101
e 11 102
e 11 105
e 11 111
e 11 116
e 11 119
e 11 125
e 11 132
e 11 142
e 11 148
e 11 149
e 11 163
e 11 164
e 11 184
e 11 185
e 11 190
e 12 19
e 12 22
e 12 25
e 12 28
e 12 32
e 12 40
e 12 44
e 12 49
e 12 63
e 12 68
e 12 71
e 12 72
e 12 76
e 12 89
e 12 90
e 12 92
e 12 97
e 12 98
e 12 99
e 12 105
e 12 109
e 12 124
e 12 125
e 12 129
e 12 133
e 12 136
e 12 142
e 12 143
e 12 144
e 12 146
e 12 148
e 12 149
e 12 153
e 12 154
e 12 155
e 12 158
e 12 163
e 12 172
e 12 178
e 12 191
e 12 192
e 12 199
e 13 18
e 13 19
e 13 20
e 13 33
e 13 34
e 13 41
e 13 53
e 13 58
e 13 59
e 13 63
e 13 65
e 13 69
e 13 72
e 13 84
e 13 85
e 13 90
e 13 100
e 13 101
e 13 104
e 13 105
e 13 111
e 13 118
e 13 121
e 13 122
e 13 125
e 13 126
e 13 131
e 13 146
e 13 148
e 13 150
e 13 157
e 13 158
e 13 161
e 13 163
e 13 164
e 13 165
e 13 169
e 13 171
e 13 173
e 13 185
e 13 186
e 13 193
e 14 17
e 14 44
e 14 51
e 14 53
e 14 77
e 14 79
e 14 81
e 14 88
e 14 100
e 14 111
e 14 112
e 14 113
e 14 115
e 14 150
e 14 156
e 14 160
e 14 178
e 14 181
e 14 183
e 14 193
e 14 199
e 15 19
e 15 23
e 15 34
e 15 40
e 15 42
e 15 44
e 15 46
e 15 48
e 15 61
e 15 72
e 15 84
e 15 93
e 15 99
e 15 101
e 15 109
e 15 110
e 15 113
e 15 114
e 15 117
e 15 121
e 15 123
e 15 127
e 15 129
e 15 130
e 15 133
e 15 138
e 15 140
e 15 143
e 15 145
e 15 154
e 15 159
e 15 167
e 15 176
e 15 177
e 15 190
e 15 194
e 16 19
e 16 22
e 16 24
e 16 36
e 16 38
e 16 45
e 16 54
e 16 67
e 16 77
e 16 78
e 16 80
e 16 82
e 16 90
e 16 94
e 16 97
e 16 98
e 16 124
e 16 125
e 16 145
e 16 152
e 16 160
e 16 161
e 16 165
e 16 167
e 16 169
e 16 174
e 16 179
e 16 181
e 16 183
e 16 191
e 16 195
e 16 197
e 16 199
e 17 21
e 17 22
e 17 33
e 17 35
e 17 36
e 17 58
e 17 70
e 17 71
e 17 73
e 17 81
e 17 90
e 17 91
e 17 101
e 17 105
e 17 120
e 17 129
e 17 134
e 17 136
e 17 139
e 17 140
e 17 143
e 17 145
e 17 146
e 17 147
e 17 154
e 17 161
e 17 169
e 17 179
e 17 190
e 18 20
e 18 27
e 18 33
e 18 35
e 18 38
e 18 48
e 18 49
e 18 52
e 18 54
e 18 57
e 18 63
e 18 66
e 18 68
e 18 69
e 18 76
e 18 78
e 18 84
e 18 85
e 18 90
e 18 94
e 18 109
e 18 120
e 18 122
e 18 126
e 18 127
e 18 130
e 18 133
e 18 140
e 18 145
e 18 146
e 18 147
e 18 148
e 18 150
e 18 152
e 18 156
e 18 157
e 18 162
e 18 169
e 18 175
e 18 186
e 18 187
e 18 190
e 18 198
e 18 200
e 19 21
e 19 25
e 19 28
e 19 30
e 19 36
e 19 39
e 19 54
e 19 65
e 19 66
e 19 68
e 19 70
e 19 74
e 19 76
e 19 80
e 19 82
e 19 95
e 19 109
e 19 121
e 19 130
e 19 134
e 19 143
e 19 146
e 19 147
e 19 149
e 19 150
e 19 151
e 19 155
e 19 165
e 19 172
e 19 175
e 19 178
e 19 180
e 19 191
e 19 199
e 20 31
e 20 36
e 20 44
e 20 50
e 20 67
e 20 69
e 20 76
e 20 80
e 20 87
e 20 90
e 20 93
e 20 97
e 20 99
e 20 106
e 20 109
e 20 113
e 20 131
e 20 137
e 20 146
e 20 151
e 20 156
e 20 164
e 20 170
e 20 177
e 20 179
e 20 182
e 20 187
e 20 188
e 20 189
e 20 193
e 20 195
e 21 22
e 21 23
e 21 25
e 21 26
e 21 27
e 21 32
e 21 35
e 21 36
e 21 37
e 21 38
e 21 44
e 21 56
e 21 62
e 21 66
e 21 72
e 21 73
e 21 78
e 21 79
e 21 82
e 21 96
e 21 98
e 21 100
e 21 109
e 21 111
e 21 114
e 21 116
e 21 122
e 21 130
e 21 131
e 21 134
e 21 136
e 21 140
e 21 153
e 21 155
e 21 157
e 21 158
e 21 160
e 21 178
e 21 179
e 21 181
e 21 182
e 21 191
e 21 192
e 21 194
e 21 200
e 22 26
e 22 27
e 22 29
e 22 33
e 22 34
e 22 40
e 22 41
e 22 42
e 22 47
e 22 50
e 22 57
e 22 58
e 22 62
e 22 63
e 22 64
e 22 65
e 22 67
e 22 79
e 22 87
e 22 89
e 22 95
e 22 96
e 22 97
e 22 98
e 22 99
e 22 101
e 22 103
e 22 107
e 22 119
e 22 121
e 22 134
e 22 137
e 22 139
e 22 142
e 22 146
e 22 147
e 22 151
e 22 154
e 22 167
e 22 169
e 22 171
e 22 172
e 22 173
e 22 176
e 22 178
e 22 194
e 22 196
e 23 27
e 23 38
e 23 39
e 23 45
e 23 52
e 23 54
e 23 56
e 23 60
e 23 70
e 23 75
e 23 92
e 23 101
e 23 102
e 23 106
e 23 108
e 23 109
e 23 110
e 23 118
e 23 123
e 23 125
e 23 128
e 23 129
e 23 131
e 23 132
e 23 133
e 23 136
e 23 137
e 23 140
e 23 148
e 23 156
e 23 160
e 23 162
e 23 164
e 23 167
e 23 177
e 23 179
e 23 181
e 23 192
e 23 193
e 23 194
e 24 29
e 24 34
e 24 35
e 24 38
e 24 54
e 24 59
e 24 67
e 24 71
e 24 78
e 24 79
e 24 84
e 24 85
e 24 88
e 24 90
e 24 91
e 24 94
e 24 97
e 24 102
e 24 103
e 24 107
e 24 113
e 24 114
e 24 121
e 24 122
e 24 137
e 24 143
e 24 144
e 24 147
e 24 157
e 24 158
e 24 159
e 24 160
e 24 162
e 24 163
e 24 166
e 24 168
e 24 174
e 24 178
e 24 181
e 24 188
e 24 193
e 25 27
e 25 29
e 25 30
e 25 32
e 25 46
e 25 63
e 25 68
e 25 74
e 25 76
e 25 83
e 25 94
e 25 106
e 25 121
e 25 125
e 25 128
e 25 130
e 25 133
e 25 137
e 25 139
e 25 141
e 25 154
e 25 158
e 25 165
e 25 168
e 25 169
e 25 171
e 25 175
e 25 190
e 26 32
e 26 39
e 26 51
e 26 56
e 26 57
e 26 58
e 26 60
e 26 64
e 26 79
e 26 80
e 26 86
e 26 90
e 26 102
e 26 114
e 26 116
e 26 120
e 26 127
e 26 129
e 26 132
e 26 150
e 26 152
e 26 162
e 26 163
e 26 166
e 26 188
e 26 192
e 26 194
e 26 198
e 26 199
e 27 31
e 27 33
e 27 41
e 27 51
e 27 57
e 27 63
e 27 65
e 27 67
e 27 73
e 27 77
e 27 78
e 27 83
e 27 85
e 27 87
e 27 98
e 27 103
e 27 106
e 27 109
e 27 119
e 27 121
e 27 123
e 27 131
e 27 132
e 27 134
e 27 138
e 27 141
e 27 144
e 27 147
e 27 150
e 27 154
e 27 155
e 27 158
e 27 160
e 27 164
e 27 168
e 27 172
e 27 174
e 27 180
e 27 181
e 27 191
e 27 195
e 27 197
e 28 30
e 28 31
e 28 36
e 28 37
e 28 39
e 28 50
e 28 55
e 28 66
e 28 75
e 28 76
e 28 82
e 28 87
e 28 90
e 28 99
e 28 103
e 28 107
e 28 113
e 28 117
e 28 121
e 28 122
e 28 127
e 28 129
e 28 149
e 28 151
e 28 159
e 28 160
e 28 162
e 28 165
e 28 177
e 28 179
e 28 197
e 29 33
e 29 38
e 29 40
e 29 52
e 29 68
e 29 69
e 29 77
e 29 81
e 29 83
e 29 87
e 29 94
e 29 99
e 29 102
e 29 104
e 29 107
e 29 111
e 29 112
e 29 118
e 29 121
e 29 123
e 29 124
e 29 135
e 29 136
e 29 143
e 29 144
e 29 147
e 29 149
e 29 151
e 29 152
e 29 160
e 29 167
e 29 169
e 29 174
e 29 175
e 29 181
e 29 183
e 29 185
e 29 197
e 29 200
e 30 35
e 30 36
e 30 39
e 30 43
e 30 48
e 30 52
e 30 54
e 30 57
e 30 63
e 30 64
e 30 65
e 30 67
e 30 72
e 30 75
e 30 81
e 30 83
e 30 87
e 30 91
e 30 99
e 30 101
e 30 102
e 30 109
e 30 116
e 30 129
e 30 140
e 30 148
e 30 154
e 30 155
e 30 158
e 30 174
e 30 191
e 31 41
e 31 50
e 31 51
e 31 55
e 31 62
e 31 70
e 31 76
e 31 79
e 31 83
e 31 95
e 31 103
e 31 104
e 31 106
e 31 113
e 31 115
e 31 123
e 31 132
e 31 145
e 31 155
e 31 167
e 31 168
e 31 171
e 31 177
e 31 179
e 31 181
e 31 182
e 31 187
e 31 190
e 31 191
e 31 195
e 31 197
e 31 199
e 32 36
e 32 37
e 32 41
e 32 45
e 32 47
e 32 55
e 32 59
e 32 63
e 32 73
e 32 74
e 32 84
e 32 86
e 32 92
e 32 93
e 32 98
e 32 107
e 32 108
e 32 111
e 32 115
e 32 121
e 32 126
e 32 137
e 32 140
e 32 143
e 32 153
e 32 161
e 32 163
e 32 168
e 32 170
e 32 175
e 32 185
e 32 197
e 32 198
e 32 199
e 33 34
e 33 35
e 33 37
e 33 40
e 33 44
e 33 49
e 33 52
e 33 63
e 33 64
e 33 71
e 33 74
e 33 78
e 33 81
e 33 86
e 33 89
e 33 90
e 33 92
e 33 93
e 33 95
e 33 103
e 33 106
e 33 109
e 33 110
e 33 111
e 33 112
e 33 113
e 33 115
e 33 117
e 33 122
e 33 128
e 33 133
e 33 154
e 33 156
e 33 159
e 33 169
e 33 170
e 33 178
e 33 185
e 33 186
e 33 187
e 33 190
e 33 193
e 33 195
e 34 37
e 34 39
e 34 44
e 34 52
e 34 57
e 34 58
e 34 63
e 34 64
e 34 66
e 34 75
e 34 81
e 34 88
e 34 89
e 34 95
e 34 100
e 34 104
e 34 108
e 34 109
e 34 118
e 34 122
e 34 123
e 34 125
e 34 128
e 34 134
e 34 135
e 34 136
e 34 142
e 34 145
e 34 147
e 34 157
e 34 172
e 34 173
e 34 177
e 34 181
e 34 195
e 34 200
e 35 36
e 35 40
e 35 46
e 35 49
e 35 55
e 35 59
e 35 64
e 35 75
e 35 78
e 35 82
e 35 84
e 35 86
e 35 89
e 35 91
e 35 98
e 35 109
e 35 122
e 35 124
e 35 131
e 35 142
e 35 144
e 35 146
e 35 155
e 35 167
e 35 170
e 35 173
e 35 180
e 35 181
e 35 189
e 35 198
e 35 199
e 36 44
e 36 46
e 36 48
e 36 54
e 36 62
e 36 69
e 36 84
e 36 85
e 36 89
e 36 91
e 36 95
e 36 101
e 36 103
e 36 105
e 36 109
e 36 113
e 36 116
e 36 119
e 36 121
e 36 127
e 36 133
e 36 134
e 36 142
e 36 152
e 36 155
e 36 162
e 36 163
e 36 187
e 36 191
e 36 192
e 37 38
e 37 43
e 37 44
e 37 48
e 37 49
e 37 52
e 37 54
e 37 64
e 37 67
e 37 71
e 37 72
e 37 76
e 37 78
e 37 79
e 37 80
e 37 84
e 37 90
e 37 91
e 37 102
e 37 104
e 37 109
e 37 115
e 37 117
e 37 119
e 37 121
e 37 126
e 37 134
e 37 143
e 37 152
e 37 156
e 37 161
e 37 162
e 37 164
e 37 171
e 37 174
e 37 175
e 37 177
e 37 179
e 37 181
e 37 184
e 37 188
e 37 189
e 37 197
e 37 200
e 38 41
e 38 44
e 38 48
e 38 49
e 38 55
e 38 59
e 38 72
e 38 73
e 38 74
e 38 75
e 38 90
e 38 102
e 38 104
e 38 108
e 38 110
e 38 113
e 38 115
e 38 118
e 38 121
e 38 127
e 38 128
e 38 141
e 38 143
e 38 151
e 38 156
e 38 161
e 38 168
e 38 170
e 38 175
e 38 183
e 38 190
e 38 195
e 39 51
e 39 53
e 39 58
e 39 59
e 39 64
e 39 65
e 39 71
e 39 75
e 39 77
e 39 78
e 39 82
e 39 89
e 39 94
e 39 105
e 39 107
e 39 109
e 39 111
e 39 112
e 39 115
e 39 116
e 39 118
e 39 119
e 39 122
e 39 128
e 39 130
e 39 132
e 39 133
e 39 137
e 39 138
e 39 139
e 39 150
e 39 156
e 39 158
e 39 159
e 39 162
e 39 165
e 39 166
e 39 168
e 39 177
e 39 185
e 39 186
e 39 188
e 39 189
e 39 191
e 39 192
e 39 198
e 39 199
e 40 53
e 40 65
e 40 69
e 40 72
e 40 75
e 40 80
e 40 81
e 40 90
e 40 92
e 40 93
e 40 95
e 40 96
e 40 105
e 40 114
e 40 122
e 40 127
e 40 130
e 40 131
e 40 133
e 40 134
e 40 148
e 40 152
e 40 154
e 40 159
e 40 161
e 40 169
e 40 172
e 40 176
e 40 188
e 40 191
e 40 197
e 41 66
e 41 75
e 41 78
e 41 82
e 41 90
e 41 94
e 41 96
e 41 100
e 41 104
e 41 114
e 41 115
e 41 116
e 41 119
e 41 137
e 41 141
e 41 142
e 41 155
e 41 158
e 41 161
e 41 163
e 41 170
e 41 172
e 41 174
e 41 180
e 41 181
e 41 182
e 41 186
e 41 196
e 41 199
e 42 55
e 42 64
e 42 66
e 42 68
e 42 72
e 42 73
e 42 85
e 42 93
e 42 94
e 42 103
e 42 104
e 42 108
e 42 111
e 42 114
e 42 115
e 42 116
e 42 117
e 42 122
e 42 125
e 42 128
e 42 129
e 42 130
e 42 131
e 42 138
e 42 141
e 42 142
e 42 143
e 42 145
e 42 148
e 42 150
e 42 153
e 42 154
e 42 158
e 42 160
e 42 169
e 42 175
e 42 185
e 42 199
e 43 54
e 43 57
e 43 58
e 43 62
e 43 71
e 43 74
e 43 80
e 43 88
e 43 90
e 43 98
e 43 102
e 43 105
e 43 107
e 43 109
e 43 112
e 43 117
e 43 118
e 43 125
e 43 135
e 43 140
e 43 144
e 43 152
e 43 155
e 43 166
e 43 168
e 43 169
e 43 175
e 43 177
e 43 184
e 43 188
e 43 191
e 43 195
e 43 197
e 43 199
e 44 51
e 44 53
e 44 60
e 44 64
e 44 73
e 44 76
e 44 82
e 44 93
e 44 94
e 44 98
e 44 100
e 44 103
e 44 108
e 44 109
e 44 114
e 44 115
e 44 126
e 44 128
e 44 141
e 44 143
e 44 144
e 44 145
e 44 148
e 44 155
e 44 156
e 44 157
e 44 161
e 44 168
e 44 170
e 44 171
e 44 173
e 44 179
e 44 183
e 44 190
e 44 198
e 44 199
e 44 200
e 45 57
e 45 58
e 45 64
e 45 68
e 45 69
e 45 71
e 45 72
e 45 83
e 45 85
e 45 90
e 45 91
e 45 92
e 45 94
e 45 99
e 45 100
e 45 102
e 45 105
e 45 107
e 45 115
e 45 119
e 45 124
e 45 127
e 45 128
e 45 129
e 45 138
e 45 140
e 45 141
e 45 142
e 45 145
e 45 148
e 45 151
e 45 159
e 45 166
e 45 175
e 45 179
e 45 185
e 45 187
e 45 193
e 45 196
e 45 197
e 46 51
e 46 59
e 46 60
e 46 63
e 46 64
e 46 66
e 46 77
e 46 83
e 46 90
e 46 101
e 46 109
e 46 114
e 46 116
e 46 120
e 46 123
e 46 124
e 46 125
e 46 130
e 46 131
e 46 141
e 46 142
e 46 145
e 46 147
e 46 154
e 46 158
e 46 160
e 46 170
e 46 172
e 46 175
e 46 176
e 46 192
e 46 197
e 47 49
e 47 50
e 47 70
e 47 96
e 47 102
e 47 103
e 47 105
e 47 111
e 47 117
e 47 120
e 47 140
e 47 143
e 47 149
e 47 150
e 47 163
e 47 181
e 47 184
e 47 196
e 47 200
e 48 54
e 48 59
e 48 65
e 48 70
e 48 71
e 48 74
e 48 85
e 48 96
e 48 99
e 48 106
e 48 111
e 48 142
e 48 158
e 48 163
e 48 168
e 48 169
e 48 173
e 48 186
e 48 195
e 48 196
e 49 52
e 49 55
e 49 62
e 49 63
e 49 72
e 49 75
e 49 77
e 49 82
e 49 92
e 49 97
e 49 99
e 49 105
e 49 111
e 49 118
e 49 121
e 49 123
e 49 127
e 49 136
e 49 140
e 49 142
e 49 143
e 49 148
e 49 156
e 49 158
e 49 167
e 49 169
e 49 178
e 49 182
e 49 187
e 49 190
e 49 195
e 49 197
e 49 198
e 50 51
e 50 71
e 50 73
e 50 77
e 50 86
e 50 88
e 50 91
e 50 92
e 50 95
e 50 103
e 50 104
e 50 106
e 50 114
e 50 119
e 50 129
e 50 130
e 50 134
e 50 142
e 50 143
e 50 147
e 50 152
e 50 153
e 50 155
e 50 158
e 50 167
e 50 170
e 50 180
e 50 191
e 50 193
e 50 195
e 50 196
e 50 198
e 50 200
e 51 53
e 51 63
e 51 66
e 51 73
e 51 90
e 51 105
e 51 107
e 51 120
e 51 123
e 51 127
e 51 130
e 51 132
e 51 133
e 51 142
e 51 144
e 51 152
e 51 158
e 51 160
e 51 176
e 51 178
e 51 182
e 51 183
e 51 192
e 51 197
e 51 200
e 52 53
e 52 60
e 52 69
e 52 78
e 52 88
e 52 89
e 52 91
e 52 100
e 52 103
e 52 107
e 52 111
e 52 112
e 52 118
e 52 119
e 52 124
e 52 125
e 52 126
e 52 127
e 52 130
e 52 131
e 52 132
e 52 137
e 52 141
e 52 144
e 52 152
e 52 155
e 52 165
e 52 167
e 52 184
e 52 185
e 52 191
e 52 198
e 52 199
e 53 56
e 53 58
e 53 59
e 53 67
e 53 70
e 53 72
e 53 74
e 53 76
e 53 77
e 53 79
e 53 83
e 53 84
e 53 87
e 53 88
e 53 90
e 53 93
e 53 94
e 53 99
e 53 108
e 53 114
e 53 115
e 53 126
e 53 132
e 53 159
e 53 160
e 53 163
e 53 167
e 53 168
e 53 175
e 53 178
e 53 180
e 53 193
e 54 55
e 54 58
e 54 62
e 54 68
e 54 73
e 54 75
e 54 76
e 54 80
e 54 81
e 54 86
e 54 93
e 54 94
e 54 95
e 54 101
e 54 108
e 54 117
e 54 124
e 54 125
e 54 127
e 54 135
e 54 140
e 54 156
e 54 157
e 54 159
e 54 160
e 54 166
e 54 169
e 54 175
e 54 177
e 54 184
e 54 189
e 54 191
e 54 199
e 54 200
e 55 72
e 55 84
e 55 94
e 55 95
e 55 104
e 55 107
e 55 109
e 55 114
e 55 125
e 55 126
e 55 131
e 55 138
e 55 155
e 55 165
e 55 176
e 55 186
e 55 188
e 55 189
e 55 190
e 55 197
e 56 63
e 56 67
e 56 72
e 56 73
e 56 78
e 56 96
e 56 106
e 56 108
e 56 113
e 56 114
e 56 116
e 56 123
e 56 127
e 56 129
e 56 130
e 56 131
e 56 132
e 56 133
e 56 140
e 56 141
e 56 142
e 56 152
e 56 167
e 56 168
e 56 177
e 56 180
e 56 185
e 56 193
e 56 194
e 57 60
e 57 70
e 57 79
e 57 81
e 57 88
e 57 97
e 57 100
e 57 104
e 57 106
e 57 125
e 57 127
e 57 137
e 57 143
e 57 146
e 57 157
e 57 160
e 57 163
e 57 169
e 57 171
e 57 172
e 57 177
e 57 181
e 57 182
e 57 185
e 57 186
e 57 194
e 57 196
e 58 65
e 58 68
e 58 70
e 58 82
e 58 94
e 58 97
e 58 100
e 58 102
e 58 111
e 58 112
e 58 113
e 58 121
e 58 122
e 58 123
e 58 125
e 58 128
e 58 129
e 58 133
e 58 136
e 58 138
e 58 146
e 58 149
e 58 153
e 58 154
e 58 157
e 58 159
e 58 163
e 58 164
e 58 174
e 58 186
e 58 189
e 58 191
e 58 194
e 58 196
e 59 73
e 59 77
e 59 83
e 59 95
e 59 97
e 59 105
e 59 107
e 59 126
e 59 131
e 59 133
e 59 144
e 59 152
e 59 155
e 59 162
e 59 170
e 59 172
e 59 174
e 59 178
e 59 180
e 59 186
e 59 191
e 59 192
e 59 196
e 60 68
e 60 69
e 60 78
e 60 82
e 60 86
e 60 91
e 60 96
e 60 101
e 60 107
e 60 110
e 60 127
e 60 128
e 60 132
e 60 139
e 60 140
e 60 141
e 60 142
e 60 145
e 60 152
e 60 163
e 60 165
e 60 176
e 60 180
e 60 186
e 60 193
e 60 194
e 60 200
e 61 68
e 61 71
e 61 78
e 61 81
e 61 85
e 61 96
e 61 98
e 61 100
e 61 107
e 61 109
e 61 114
e 61 141
e 61 142
e 61 144
e 61 145
e 61 150
e 61 158
e 61 175
e 61 178
e 61 180
e 61 181
e 61 183
e 61 186
e 61 188
e 61 190
e 61 196
e 61 197
e 61 199
e 62 76
e 62 79
e 62 82
e 62 88
e 62 89
e 62 96
e 62 97
e 62 106
e 62 109
e 62 111
e 62 114
e 62 117
e 62 123
e 62 140
e 62 147
e 62 149
e 62 159
e 62 160
e 62 167
e 62 172
e 62 173
e 62 176
e 62 178
e 62 181
e 62 200
e 63 70
e 63 75
e 63 78
e 63 86
e 63 99
e 63 101
e 63 114
e 63 137
e 63 138
e 63 139
e 63 143
e 63 144
e 63 145
e 63 149
e 63 151
e 63 152
e 63 154
e 63 155
e 63 159
e 63 168
e 63 169
e 63 172
e 63 174
e 63 176
e 63 178
e 63 183
e 63 185
e 63 186
e 63 187
e 63 189
e 63 191
e 63 192
e 63 200
e 64 70
e 64 73
e 64 75
e 64 79
e 64 90
e 64 92
e 64 93
e 64 103
e 64 124
e 64 127
e 64 130
e 64 137
e 64 138
e 64 146
e 64 149
e 64 151
e 64 154
e 64 157
e 64 159
e 64 161
e 64 162
e 64 164
e 64 166
e 64 173
e 64 176
e 64 186
e 64 189
e 64 196
e 65 68
e 65 71
e 65 75
e 65 82
e 65 90
e 65 91
e 65 94
e 65 101
e 65 103
e 65 113
e 65 116
e 65 120
e 65 121
e 65 123
e 65 124
e 65 125
e 65 128
e 65 130
e 65 134
e 65 140
e 65 152
e 65 154
e 65 160
e 65 161
e 65 164
e 65 166
e 65 173
e 65 183
e 65 186
e 65 189
e 65 193
e 65 194
e 66 67
e 66 72
e 66 78
e 66 82
e 66 86
e 66 88
e 66 96
e 66 97
e 66 98
e 66 99
e 66 101
e 66 113
e 66 117
e 66 119
e 66 124
e 66 125
e 66 131
e 66 134
e 66 153
e 66 158
e 66 159
e 66 165
e 66 166
e 66 170
e 66 172
e 66 175
e 66 176
e 66 177
e 66 179
e 66 180
e 66 190
e 66 193
e 66 200
e 67 69
e 67 73
e 67 76
e 67 80
e 67 89
e 67 92
e 67 93
e 67 96
e 67 100
e 67 105
e 67 118
e 67 122
e 67 127
e 67 131
e 67 135
e 67 137
e 67 138
e 67 144
e 67 145
e 67 152
e 67 155
e 67 160
e 67 166
e 67 168
e 67 177
e 67 184
e 67 186
e 67 189
e 67 195
e 67 196
e 67 198
e 68 70
e 68 77
e 68 83
e 68 86
e 68 93
e 68 98
e 68 107
e 68 108
e 68 114
e 68 116
e 68 120
e 68 123
e 68 126
e 68 127
e 68 137
e 68 142
e 68 143
e 68 145
e 68 151
e 68 156
e 68 174
e 68 175
e 68 176
e 68 187
e 68 190
e 68 195
e 68 199
e 69 84
e 69 89
e 69 111
e 69 123
e 69 127
e 69 139
e 69 147
e 69 157
e 69 158
e 69 166
e 69 171
e 69 185
e 69 194
e 69 198
e 70 82
e 70 83
e 70 84
e 70 85
e 70 91
e 70 96
e 70 98
e 70 107
e 70 109
e 70 113
e 70 115
e 70 120
e 70 123
e 70 130
e 70 141
e 70 145
e 70 146
e 70 148
e 70 149
e 70 159
e 70 161
e 70 163
e 70 164
e 70 167
e 70 168
e 70 169
e 70 179
e 70 182
e 70 186
e 70 188
e 70 198
e 70 199
e 71 76
e 71 79
e 71 81
e 71 87
e 71 94
e 71 103
e 71 117
e 71 125
e 71 131
e 71 136
e 71 143
e 71 145
e 71 160
e 71 164
e 71 165
e 71 170
e 71 175
e 71 177
e 71 178
e 71 188
e 71 189
e 71 195
e 71 199
e 71 200
e 72 79
e 72 81
e 72 87
e 72 98
e 72 101
e 72 108
e 72 111
e 72 115
e 72 119
e 72 123
e 72 127
e 72 134
e 72 135
e 72 137
e 72 141
e 72 151
e 72 152
e 72 154
e 72 156
e 72 157
e 72 162
e 72 171
e 72 176
e 72 178
e 72 179
e 72 182
e 72 183
e 72 193
e 72 198
e 72 199
e 73 74
e 73 79
e 73 95
e 73 99
e 73 102
e 73 104
e 73 116
e 73 119
e 73 127
e 73 130
e 73 131
e 73 134
e 73 135
e 73 144
e 73 149
e 73 158
e 73 165
e 73 170
e 73 173
e 73 179
e 73 188
e 73 193
e 73 197
e 73 200
e 74 84
e 74 86
e 74 101
e 74 115
e 74 116
e 74 121
e 74 129
e 74 133
e 74 136
e 74 156
e 74 160
e 74 175
e 74 184
e 74 187
e 75 78
e 75 82
e 75 83
e 75 87
e 75 105
e 75 107
e 75 113
e 75 129
e 75 130
e 75 134
e 75 135
e 75 142
e 75 147
e 75 148
e 75 153
e 75 160
e 75 169
e 75 172
e 75 176
e 75 182
e 75 187
e 75 190
e 75 191
e 75 198
e 76 78
e 76 85
e 76 87
e 76 93
e 76 94
e 76 96
e 76 97
e 76 99
e 76 110
e 76 111
e 76 114
e 76 117
e 76 119
e 76 125
e 76 128
e 76 136
e 76 137
e 76 139
e 76 140
e 76 142
e 76 143
e 76 149
e 76 152
e 76 154
e 76 155
e 76 159
e 76 162
e 76 163
e 76 170
e 76 178
e 76 186
e 76 187
e 76 188
e 76 194
e 76 195
e 77 93
e 77 99
e 77 103
e 77 106
e 77 107
e 77 111
e 77 116
e 77 117
e 77 120
e 77 121
e 77 125
e 77 129
e 77 131
e 77 137
e 77 150
e 77 155
e 77 157
e 77 158
e 77 163
e 77 168
e 77 171
e 77 199
e 78 79
e 78 94
e 78 97
e 78 100
e 78 119
e 78 122
e 78 123
e 78 124
e 78 126
e 78 136
e 78 141
e 78 147
e 78 159
e 78 162
e 78 165
e 78 179
e 78 180
e 78 192
e 78 193
e 78 194
e 78 195
e 78 200
e 79 81
e 79 83
e 79 89
e 79 94
e 79 105
e 79 107
e 79 111
e 79 122
e 79 128
e 79 132
e 79 139
e 79 140
e 79 142
e 79 145
e 79 152
e 79 158
e 79 169
e 79 179
e 79 181
e 79 182
e 79 185
e 79 197
e 80 82
e 80 88
e 80 94
e 80 95
e 80 96
e 80 97
e 80 102
e 80 104
e 80 108
e 80 109
e 80 113
e 80 120
e 80 123
e 80 124
e 80 138
e 80 139
e 80 148
e 80 151
e 80 155
e 80 162
e 80 164
e 80 169
e 80 176
e 80 180
e 80 181
e 80 186
e 81 84
e 81 94
e 81 95
e 81 96
e 81 101
e 81 107
e 81 108
e 81 109
e 81 112
e 81 113
e 81 118
e 81 121
e 81 127
e 81 131
e 81 134
e 81 135
e 81 143
e 81 144
e 81 145
e 81 148
e 81 149
e 81 152
e 81 162
e 81 166
e 81 169
e 81 172
e 81 177
e 81 178
e 81 181
e 81 182
e 81 185
e 81 189
e 81 190
e 81 192
e 81 193
e 82 85
e 82 86
e 82 94
e 82 102
e 82 110
e 82 118
e 82 119
e 82 124
e 82 129
e 82 134
e 82 137
e 82 138
e 82 146
e 82 151
e 82 155
e 82 156
e 82 157
e 82 168
e 82 174
e 82 183
e 82 186
e 82 192
e 82 194
e 83 89
e 83 99
e 83 101
e 83 103
e 83 106
e 83 117
e 83 119
e 83 121
e 83 124
e 83 127
e 83 137
e 83 138
e 83 149
e 83 150
e 83 160
e 83 162
e 83 170
e 83 171
e 83 189
e 83 191
e 83 192
e 83 196
e 83 197
e 83 199
e 83 200
e 84 88
e 84 89
e 84 91
e 84 96
e 84 107
e 84 108
e 84 111
e 84 112
e 84 131
e 84 133
e 84 137
e 84 140
e 84 141
e 84 151
e 84 155
e 84 156
e 84 159
e 84 160
e 84 167
e 84 170
e 84 174
e 84 175
e 84 180
e 84 184
e 84 185
e 84 194
e 84 195
e 84 200
e 85 86
e 85 91
e 85 97
e 85 99
e 85 100
e 85 107
e 85 115
e 85 117
e 85 119
e 85 123
e 85 137
e 85 146
e 85 147
e 85 156
e 85 160
e 85 164
e 85 167
e 85 171
e 85 172
e 85 174
e 85 182
e 85 185
e 85 192
e 85 194
e 85 195
e 85 199
e 85 200
e 86 88
e 86 92
e 86 93
e 86 107
e 86 108
e 86 112
e 86 115
e 86 119
e 86 121
e 86 125
e 86 128
e 86 137
e 86 138
e 86 140
e 86 151
e 86 153
e 86 156
e 86 158
e 86 179
e 86 180
e 86 191
e 86 192
e 87 89
e 87 104
e 87 118
e 87 119
e 87 132
e 87 134
e 87 141
e 87 167
e 87 174
e 87 181
e 87 183
e 87 192
e 87 194
e 87 196
e 88 119
e 88 127
e 88 139
e 88 146
e 88 148
e 88 158
e 88 163
e 88 177
e 88 183
e 88 185
e 89 110
e 89 113
e 89 117
e 89 118
e 89 119
e 89 121
e 89 124
e 89 127
e 89 128
e 89 136
e 89 137
e 89 153
e 89 155
e 89 156
e 89 158
e 89 171
e 89 172
e 89 181
e 89 186
e 89 190
e 89 200
e 90 93
e 90 101
e 90 102
e 90 104
e 90 105
e 90 108
e 90 113
e 90 117
e 90 130
e 90 133
e 90 140
e 90 148
e 90 164
e 90 165
e 90 166
e 90 170
e 90 172
e 90 173
e 90 174
e 90 182
e 90 185
e 90 191
e 90 194
e 91 96
e 91 97
e 91 99
e 91 101
e 91 110
e 91 123
e 91 126
e 91 129
e 91 139
e 91 143
e 91 147
e 91 152
e 91 153
e 91 156
e 91 178
e 91 179
e 91 181
e 91 183
e 91 190
e 91 193
e 91 196
e 92 93
e 92 96
e 92 99
e 92 100
e 92 110
e 92 114
e 92 115
e 92 125
e 92 126
e 92 129
e 92 134
e 92 136
e 92 140
e 92 142
e 92 173
e 92 175
e 92 180
e 92 187
e 92 192
e 92 199
e 93 97
e 93 102
e 93 113
e 93 120
e 93 124
e 93 140
e 93 143
e 93 145
e 93 153
e 93 154
e 93 155
e 93 160
e 93 164
e 93 167
e 93 170
e 93 174
e 93 175
e 93 182
e 93 184
e 93 186
e 93 197
e 94 100
e 94 125
e 94 143
e 94 146
e 94 152
e 94 166
e 94 167
e 94 170
e 94 174
e 94 177
e 94 186
e 94 189
e 94 200
e 95 106
e 95 107
e 95 113
e 95 117
e 95 128
e 95 132
e 95 134
e 95 137
e 95 140
e 95 145
e 95 151
e 95 154
e 95 155
e 95 160
e 95 161
e 95 162
e 95 164
e 95 166
e 95 176
e 95 180
e 95 189
e 95 194
e 96 104
e 96 107
e 96 112
e 96 119
e 96 125
e 96 132
e 96 134
e 96 137
e 96 148
e 96 149
e 96 153
e 96 156
e 96 163
e 96 167
e 96 186
e 96 187
e 96 188
e 96 195
e 96 198
e 96 199
e 96 200
e 97 105
e 97 120
e 97 124
e 97 127
e 97 131
e 97 135
e 97 148
e 97 151
e 97 164
e 97 171
e 97 180
e 97 182
e 97 185
e 97 187
e 97 191
e 97 192
e 97 197
e 98 107
e 98 109
e 98 111
e 98 114
e 98 119
e 98 122
e 98 126
e 98 127
e 98 128
e 98 134
e 98 137
e 98 149
e 98 159
e 98 165
e 98 167
e 98 169
e 98 170
e 98 172
e 98 187
e 98 189
e 98 196
e 98 199
e 99 105
e 99 106
e 99 109
e 99 115
e 99 117
e 99 126
e 99 129
e 99 131
e 99 133
e 99 153
e 99 156
e 99 161
e 99 178
e 99 180
e 99 181
e 99 183
e 99 189
e 99 190
e 99 191
e 99 194
e 99 199
e 100 107
e 100 109
e 100 110
e 100 114
e 100 116
e 100 119
e 100 122
e 100 129
e 100 130
e 100 145
e 100 151
e 100 152
e 100 153
e 100 157
e 100 168
e 100 177
e 100 179
e 100 181
e 100 197
e 101 106
e 101 117
e 101 118
e 101 121
e 101 125
e 101 129
e 101 130
e 101 132
e 101 133
e 101 137
e 101 139
e 101 146
e 101 150
e 101 153
e 101 155
e 101 158
e 101 160
e 101 164
e 101 174
e 101 180
e 101 183
e 101 184
e 101 190
e 101 191
e 101 200
e 102 104
e 102 106
e 102 107
e 102 108
e 102 111
e 102 114
e 102 115
e 102 117
e 102 119
e 102 121
e 102 122
e 102 127
e 102 142
e 102 143
e 102 144
e 102 145
e 102 152
e 102 159
e 102 164
e 102 169
e 102 170
e 102 194
e 102 196
e 102 197
e 102 200
e 103 106
e 103 108
e 103 111
e 103 120
e 103 121
e 103 123
e 103 125
e 103 138
e 103 140
e 103 153
e 103 154
e 103 157
e 103 161
e 103 169
e 103 175
e 103 192
e 103 200
e 104 111
e 104 114
e 104 115
e 104 117
e 104 121
e 104 127
e 104 132
e 104 139
e 104 143
e 104 144
e 104 148
e 104 149
e 104 155
e 104 160
e 104 163
e 104 168
e 104 174
e 104 175
e 104 176
e 104 180
e 104 184
e 104 188
e 104 190
e 104 196
e 104 200
e 105 108
e 105 110
e 105 112
e 105 119
e 105 122
e 105 123
e 105 124
e 105 127
e 105 132
e 105 135
e 105 142
e 105 144
e 105 146
e 105 149
e 105 156
e 105 158
e 105 162
e 105 163
e 105 167
e 105 176
e 105 181
e 105 183
e 105 191
e 105 192
e 105 198
e 106 107
e 106 110
e 106 116
e 106 123
e 106 125
e 106 132
e 106 147
e 106 151
e 106 153
e 106 154
e 106 155
e 106 159
e 106 160
e 106 178
e 106 181
e 106 182
e 106 194
e 106 195
e 106 199
e 107 109
e 107 110
e 107 122
e 107 136
e 107 138
e 107 142
e 107 144
e 107 145
e 107 147
e 107 153
e 107 162
e 107 168
e 107 172
e 107 177
e 107 178
e 107 195
e 107 196
e 108 120
e 108 131
e 108 139
e 108 140
e 108 145
e 108 151
e 108 153
e 108 156
e 108 164
e 108 172
e 108 180
e 108 182
e 108 187
e 108 188
e 108 191
e 109 110
e 109 119
e 109 134
e 109 138
e 109 139
e 109 142
e 109 143
e 109 151
e 109 153
e 109 156
e 109 159
e 109 162
e 109 169
e 109 179
e 109 186
e 109 188
e 109 190
e 109 194
e 109 197
e 109 198
e 109 199
e 110 113
e 110 118
e 110 124
e 110 142
e 110 150
e 110 156
e 110 158
e 110 162
e 110 165
e 110 192
e 110 200
e 111 122
e 111 123
e 111 133
e 111 136
e 111 137
e 111 142
e 111 143
e 111 144
e 111 147
e 111 149
e 111 151
e 111 152
e 111 165
e 111 174
e 111 177
e 111 179
e 111 182
e 111 184
e 111 193
e 111 194
e 111 197
e 112 115
e 112 117
e 112 129
e 112 134
e 112 142
e 112 144
e 112 146
e 112 154
e 112 157
e 112 160
e 112 161
e 112 165
e 112 172
e 112 176
e 112 182
e 112 183
e 112 187
e 112 195
e 112 200
e 113 117
e 113 118
e 113 128
e 113 133
e 113 136
e 113 137
e 113 138
e 113 141
e 113 142
e 113 143
e 113 157
e 113 164
e 113 174
e 113 175
e 113 178
e 113 181
e 113 192
e 113 195
e 114 115
e 114 121
e 114 122
e 114 127
e 114 129
e 114 133
e 114 134
e 114 135
e 114 145
e 114 152
e 114 154
e 114 155
e 114 156
e 114 158
e 114 160
e 114 161
e 114 165
e 114 166
e 114 174
e 114 179
e 114 180
e 114 184
e 114 199
e 114 200
e 115 118
e 115 121
e 115 133
e 115 135
e 115 137
e 115 144
e 115 152
e 115 156
e 115 160
e 115 163
e 115 172
e 115 173
e 115 176
e 115 180
e 115 182
e 115 191
e 115 200
e 116 124
e 116 126
e 116 132
e 116 133
e 116 138
e 116 142
e 116 155
e 116 162
e 116 163
e 116 165
e 116 171
e 116 172
e 116 173
e 116 182
e 116 188
e 116 196
e 116 197
e 116 199
e 117 118
e 117 119
e 117 124
e 117 131
e 117 143
e 117 147
e 117 151
e 117 152
e 117 158
e 117 161
e 117 163
e 117 166
e 117 172
e 117 176
e 117 177
e 117 181
e 117 193
e 117 199
e 118 120
e 118 123
e 118 124
e 118 125
e 118 133
e 118 139
e 118 140
e 118 152
e 118 153
e 118 155
e 118 156
e 118 159
e 118 160
e 118 161
e 118 167
e 118 168
e 118 169
e 118 171
e 118 181
e 118 184
e 118 185
e 118 194
e 119 123
e 119 124
e 119 138
e 119 139
e 119 141
e 119 144
e 119 147
e 119 153
e 119 162
e 119 180
e 119 187
e 119 191
e 119 194
e 119 196
e 119 197
e 120 124
e 120 130
e 120 135
e 120 137
e 120 140
e 120 158
e 120 163
e 120 166
e 120 167
e 120 168
e 120 171
e 120 172
e 120 173
e 120 175
e 120 182
e 120 185
e 120 186
e 120 190
e 120 191
e 120 196
e 120 200
e 121 123
e 121 126
e 121 130
e 121 134
e 121 152
e 121 153
e 121 155
e 121 156
e 121 159
e 121 162
e 121 166
e 121 170
e 121 172
e 121 177
e 121 184
e 121 186
e 121 190
e 121 191
e 121 200
e 122 123
e 122 124
e 122 125
e 122 127
e 122 131
e 122 136
e 122 139
e 122 146
e 122 147
e 122 151
e 122 156
e 122 168
e 122 171
e 122 172
e 122 173
e 122 178
e 122 181
e 122 183
e 122 185
e 122 187
e 122 188
e 122 189
e 122 200
e 123 130
e 123 133
e 123 135
e 123 137
e 123 140
e 123 141
e 123 145
e 123 151
e 123 158
e 123 168
e 123 171
e 123 179
e 123 181
e 123 183
e 123 188
e 123 190
e 123 193
e 124 125
e 124 131
e 124 138
e 124 139
e 124 143
e 124 144
e 124 151
e 124 154
e 124 158
e 124 161
e 124 166
e 124 169
e 124 170
e 124 173
e 124 177
e 124 185
e 124 188
e 124 195
e 125 128
e 125 129
e 125 130
e 125 137
e 125 140
e 125 150
e 125 151
e 125 155
e 125 156
e 125 162
e 125 169
e 125 173
e 125 175
e 125 176
e 125 179
e 125 181
e 125 189
e 125 192
e 125 193
e 126 132
e 126 135
e 126 142
e 126 143
e 126 147
e 126 155
e 126 162
e 126 163
e 126 169
e 126 174
e 126 181
e 126 185
e 126 190
e 126 197
e 126 198
e 126 199
e 127 133
e 127 135
e 127 141
e 127 142
e 127 144
e 127 145
e 127 148
e 127 149
e 127 150
e 127 158
e 127 160
e 127 161
e 127 166
e 127 169
e 127 171
e 127 176
e 127 180
e 127 195
e 128 143
e 128 145
e 128 150
e 128 152
e 128 155
e 128 157
e 128 158
e 128 160
e 128 161
e 128 163
e 128 164
e 128 167
e 128 171
e 128 179
e 128 184
e 128 195
e 128 200
e 129 131
e 129 133
e 129 138
e 129 146
e 129 148
e 129 160
e 129 161
e 129 164
e 129 168
e 129 170
e 129 173
e 129 190
e 129 191
e 130 140
e 130 148
e 130 153
e 130 155
e 130 159
e 130 163
e 130 165
e 130 187
e 130 192
e 130 195
e 130 196
e 130 200
e 131 135
e 131 136
e 131 145
e 131 152
e 131 153
e 131 160
e 131 163
e 131 169
e 131 172
e 131 178
e 131 181
e 131 183
e 131 187
e 131 196
e 132 155
e 132 164
e 132 166
e 132 178
e 132 182
e 132 190
e 132 193
e 132 195
e 132 196
e 132 197
e 133 141
e 133 144
e 133 146
e 133 154
e 133 155
e 133 162
e 133 172
e 133 176
e 133 180
e 133 183
e 133 191
e 133 196
e 134 135
e 134 140
e 134 144
e 134 147
e 134 161
e 134 166
e 134 171
e 134 174
e 134 177
e 134 187
e 134 191
e 134 199
e 135 141
e 135 152
e 135 156
e 135 164
e 135 166
e 135 172
e 135 179
e 135 182
e 135 184
e 135 187
e 135 188
e 135 195
e 135 196
e 135 200
e 136 138
e 136 148
e 136 149
e 136 150
e 136 159
e 136 161
e 136 165
e 136 167
e 136 181
e 136 190
e 136 195
e 136 196
e 137 139
e 137 140
e 137 141
e 137 142
e 137 144
e 137 146
e 137 156
e 137 158
e 137 160
e 137 179
e 137 186
e 137 190
e 137 193
e 137 198
e 137 199
e 138 139
e 138 145
e 138 156
e 138 162
e 138 166
e 138 168
e 138 171
e 138 173
e 138 176
e 138 178
e 138 187
e 138 191
e 138 195
e 139 148
e 139 154
e 139 164
e 139 179
e 139 183
e 139 189
e 139 191
e 139 192
e 139 195
e 140 147
e 140 157
e 140 159
e 140 168
e 140 181
e 140 188
e 140 189
e 140 191
e 140 194
e 141 145
e 141 147
e 141 148
e 141 151
e 141 152
e 141 153
e 141 164
e 141 165
e 141 167
e 141 178
e 141 179
e 141 181
e 141 188
e 141 191
e 141 192
e 141 200
e 142 144
e 142 145
e 142 149
e 142 150
e 142 153
e 142 162
e 142 165
e 142 171
e 142 173
e 142 178
e 142 187
e 142 196
e 143 149
e 143 165
e 143 172
e 143 176
e 143 177
e 143 178
e 143 185
e 143 186
e 143 190
e 143 191
e 143 193
e 143 196
e 144 145
e 144 147
e 144 150
e 144 155
e 144 168
e 144 174
e 144 177
e 144 184
e 144 188
e 144 196
e 144 200
e 145 148
e 145 154
e 145 168
e 145 170
e 145 176
e 145 178
e 145 190
e 145 191
e 145 192
e 146 153
e 146 163
e 146 169
e 146 170
e 146 177
e 146 178
e 146 183
e 146 185
e 147 150
e 147 152
e 147 156
e 147 159
e 147 160
e 147 183
e 147 186
e 147 193
e 147 194
e 147 195
e 147 196
e 148 160
e 148 162
e 148 166
e 148 172
e 148 175
e 148 176
e 148 186
e 148 188
e 148 194
e 149 167
e 149 168
e 149 177
e 149 180
e 149 184
e 149 187
e 149 189
e 149 190
e 149 196
e 149 197
e 149 200
e 150 152
e 150 154
e 150 156
e 150 160
e 150 162
e 150 163
e 150 171
e 150 174
e 150 184
e 150 188
e 151 152
e 151 153
e 151 155
e 151 156
e 151 157
e 151 161
e 151 173
e 151 174
e 151 180
e 151 184
e 151 188
e 151 190
e 151 192
e 151 194
e 152 155
e 152 157
e 152 171
e 152 173
e 152 174
e 152 176
e 152 180
e 152 184
e 152 185
e 152 188
e 152 194
e 152 200
e 153 182
e 153 187
e 153 197
e 153 200
e 154 163
e 154 165
e 154 169
e 154 174
e 154 175
e 154 178
e 154 179
e 154 184
e 154 186
e 154 191
e 155 160
e 155 161
e 155 172
e 155 173
e 155 181
e 155 185
e 155 190
e 155 193
e 155 195
e 156 165
e 156 188
e 156 192
e 156 195
e 156 197
e 156 199
e 157 158
e 157 175
e 157 178
e 157 183
e 157 189
e 157 192
e 157 193
e 157 194
e 158 160
e 158 162
e 158 170
e 158 175
e 158 184
e 158 189
e 158 194
e 158 199
e 159 161
e 159 170
e 159 195
e 160 165
e 160 183
e 160 190
e 160 194
e 160 200
e 161 162
e 161 165
e 161 168
e 161 171
e 161 182
e 161 198
e 162 170
e 162 180
e 162 182
e 162 184
e 162 186
e 162 190
e 162 192
e 163 165
e 163 167
e 163 168
e 163 173
e 163 174
e 163 177
e 163 179
e 163 194
e 163 198
e 163 200
e 164 165
e 164 166
e 164 170
e 164 177
e 164 184
e 164 196
e 165 167
e 165 170
e 165 177
e 165 179
e 165 190
e 165 195
e 165 199
e 165 200
e 166 167
e 166 168
e 166 170
e 166 175
e 166 176
e 166 178
e 166 181
e 166 184
e 166 188
e 166 197
e 167 170
e 167 175
e 167 180
e 167 184
e 167 186
e 167 187
e 167 191
e 167 196
e 167 197
e 168 169
e 168 172
e 168 175
e 168 176
e 168 183
e 168 193
e 168 199
e 169 175
e 169 176
e 169 181
e 169 187
e 169 188
e 170 174
e 170 180
e 170 181
e 170 182
e 170 186
e 170 192
e 170 197
e 170 200
e 171 172
e 171 173
e 171 174
e 171 177
e 171 178
e 171 183
e 171 186
e 171 188
e 171 190
e 171 198
e 172 183
e 172 186
e 172 187
e 172 188
e 172 193
e 172 199
e 172 200
e 173 174
e 173 182
e 173 186
e 173 189
e 173 196
e 174 180
e 174 189
e 174 194
e 175 176
e 175 177
e 175 181
e 175 187
e 175 192
e 175 197
e 176 181
e 176 183
e 176 191
e 176 192
e 177 180
e 177 184
e 177 187
e 177 200
e 178 180
e 178 183
e 178 184
e 178 185
e 178 188
e 178 190
e 179 182
e 179 183
e 179 184
e 179 187
e 179 188
e 179 193
e 179 196
e 179 199
e 180 187
e 180 188
e 180 190
e 180 192
e 180 195
e 180 196
e 180 198
e 181 183
e 181 188
e 181 191
e 182 186
e 182 195
e 182 197
e 182 199
e 183 186
e 183 188
e 183 192
e 183 193
e 183 195
e 183 198
e 184 185
e 184 188
e 184 191
e 184 194
e 184 198
e 184 199
e 185 188
e 185 189
e 185 194
e 185 198
e 186 195
e 186 196
e 188 192
e 189 194
e 189 197
e 190 196
e 191 192
e 191 195
e 191 198
e 191 200
e 192 195
e 195 198
e 198 199
